x low 4.00
p edge 169 1837
n 169 1.00
n 168 1.00
n 167 1.00
n 166 1.00
n 165 1.00
n 164 1.00
n 163 1.00
n 162 1.00
n 161 1.00
n 160 1.00
n 159 1.00
n 158 1.00
n 157 1.00
n 156 1.00
n 155 1.00
n 154 1.00
n 153 1.00
n 152 1.00
n 151 1.00
n 150 1.00
n 149 1.00
n 148 1.00
n 147 1.00
n 146 1.00
n 145 1.00
n 144 1.00
n 143 1.00
n 142 1.00
n 141 1.00
n 140 1.00
n 139 1.00
n 138 1.00
n 137 1.00
n 136 1.00
n 135 1.00
n 134 1.00
n 133 1.00
n 132 1.00
n 131 1.00
n 130 1.00
n 129 1.00
n 128 1.00
n 127 1.00
n 126 1.00
n 125 1.00
n 124 1.00
n 123 1.00
n 122 1.00
n 121 1.00
n 120 1.00
n 119 1.00
n 118 1.00
n 117 1.00
n 116 1.00
n 115 1.00
n 114 1.00
n 113 1.00
n 112 1.00
n 111 1.00
n 110 1.00
n 109 1.00
n 108 1.00
n 107 1.00
n 106 1.00
n 105 1.00
n 104 1.00
n 103 1.00
n 102 1.00
n 101 1.00
n 100 1.00
n 99 1.00
n 98 1.00
n 97 1.00
n 96 1.00
n 95 1.00
n 94 1.00
n 93 1.00
n 92 1.00
n 91 1.00
n 90 1.00
n 89 1.00
n 88 1.00
n 87 1.00
n 86 1.00
n 85 1.00
n 84 1.00
n 83 1.00
n 82 1.00
n 81 1.00
n 80 1.00
n 79 1.00
n 78 1.00
n 77 1.00
n 76 1.00
n 75 1.00
n 74 1.00
n 73 1.00
n 72 1.00
n 71 1.00
n 70 1.00
n 69 1.00
n 68 1.00
n 67 1.00
n 66 1.00
n 65 1.00
n 64 1.00
n 63 1.00
n 62 1.00
n 61 1.00
n 60 1.00
n 59 1.00
n 58 1.00
n 57 1.00
n 56 1.00
n 55 1.00
n 54 1.00
n 53 1.00
n 52 1.00
n 51 1.00
n 50 1.00
n 49 1.00
n 48 1.00
n 47 1.00
n 46 1.00
n 45 1.00
n 44 1.00
n 43 1.00
n 42 1.00
n 41 1.00
n 40 1.00
n 39 1.00
n 38 1.00
n 37 1.00
n 36 1.00
n 35 1.00
n 34 1.00
n 33 1.00
n 32 1.00
n 31 1.00
n 30 1.00
n 29 1.00
n 28 1.00
n 27 1.00
n 26 1.00
n 25 1.00
n 24 1.00
n 23 1.00
n 22 1.00
n 21 1.00
n 20 1.00
n 19 1.00
n 18 1.00
n 17 1.00
n 16 1.00
n 15 1.00
n 14 1.00
n 13 1.00
n 12 1.00
n 11 1.00
n 10 1.00
n 9 1.00
n 8 1.00
n 7 1.00
n 6 1.00
n 5 1.00
n 4 1.00
n 3 1.00
n 2 1.00
n 1 1.00
e 168 169
e 167 169
e 167 168
e 166 169
e 166 168
e 166 167
e 165 168
e 165 167
e 165 166
e 164 168
e 164 167
e 164 166
e 164 165
e 163 169
e 163 167
e 163 166
e 163 165
e 163 164
e 162 166
e 162 165
e 162 164
e 162 163
e 161 165
e 161 164
e 161 163
e 161 162
e 160 167
e 160 164
e 160 163
e 160 162
e 160 161
e 159 166
e 159 163
e 159 162
e 159 161
e 159 160
e 158 165
e 158 162
e 158 161
e 158 160
e 158 159
e 157 164
e 157 162
e 157 161
e 157 160
e 157 159
e 157 158
e 156 163
e 156 161
e 156 160
e 156 159
e 156 158
e 156 157
e 155 162
e 155 160
e 155 159
e 155 158
e 155 157
e 155 156
e 154 161
e 154 159
e 154 158
e 154 157
e 154 156
e 154 155
e 153 160
e 153 158
e 153 157
e 153 156
e 153 155
e 153 154
e 152 160
e 152 159
e 152 156
e 152 155
e 152 154
e 152 153
e 151 158
e 151 155
e 151 154
e 151 153
e 151 152
e 150 157
e 150 155
e 150 154
e 150 153
e 150 152
e 150 151
e 149 157
e 149 156
e 149 154
e 149 153
e 149 152
e 149 151
e 149 150
e 148 155
e 148 153
e 148 152
e 148 151
e 148 150
e 148 149
e 147 153
e 147 150
e 147 149
e 147 148
e 146 153
e 146 152
e 146 149
e 146 148
e 146 147
e 145 151
e 145 150
e 145 148
e 145 147
e 145 146
e 144 150
e 144 147
e 144 146
e 144 145
e 143 149
e 143 147
e 143 146
e 143 145
e 143 144
e 142 148
e 142 147
e 142 146
e 142 145
e 142 144
e 142 143
e 141 148
e 141 146
e 141 145
e 141 144
e 141 143
e 141 142
e 140 147
e 140 146
e 140 144
e 140 143
e 140 142
e 140 141
e 139 144
e 139 141
e 139 140
e 138 147
e 138 143
e 138 140
e 138 139
e 137 144
e 137 140
e 137 139
e 137 138
e 136 150
e 136 147
e 136 145
e 136 144
e 136 143
e 136 141
e 136 140
e 136 139
e 136 138
e 136 137
e 135 150
e 135 149
e 135 147
e 135 146
e 135 145
e 135 144
e 135 143
e 135 142
e 135 141
e 135 140
e 135 139
e 135 138
e 135 137
e 135 136
e 134 147
e 134 144
e 134 143
e 134 140
e 134 138
e 134 137
e 134 136
e 134 135
e 133 150
e 133 144
e 133 138
e 133 137
e 133 136
e 133 135
e 133 134
e 132 154
e 132 153
e 132 151
e 132 150
e 132 149
e 132 147
e 132 145
e 132 144
e 132 143
e 132 141
e 132 137
e 132 136
e 132 135
e 132 134
e 132 133
e 131 153
e 131 150
e 131 149
e 131 147
e 131 146
e 131 144
e 131 143
e 131 140
e 131 138
e 131 136
e 131 135
e 131 134
e 131 133
e 131 132
e 130 150
e 130 137
e 130 135
e 130 134
e 130 133
e 130 132
e 130 131
e 129 157
e 129 154
e 129 153
e 129 151
e 129 150
e 129 149
e 129 147
e 129 144
e 129 136
e 129 134
e 129 133
e 129 132
e 129 131
e 129 130
e 128 157
e 128 156
e 128 153
e 128 152
e 128 150
e 128 149
e 128 148
e 128 147
e 128 146
e 128 143
e 128 135
e 128 132
e 128 131
e 128 130
e 128 129
e 127 153
e 127 149
e 127 147
e 127 134
e 127 131
e 127 130
e 127 129
e 127 128
e 126 157
e 126 154
e 126 153
e 126 150
e 126 133
e 126 130
e 126 129
e 126 128
e 126 127
e 125 161
e 125 160
e 125 158
e 125 157
e 125 156
e 125 154
e 125 153
e 125 152
e 125 151
e 125 150
e 125 149
e 125 147
e 125 133
e 125 132
e 125 130
e 125 129
e 125 128
e 125 127
e 125 126
e 124 160
e 124 157
e 124 156
e 124 153
e 124 152
e 124 150
e 124 149
e 124 147
e 124 131
e 124 129
e 124 128
e 124 127
e 124 126
e 124 125
e 123 153
e 123 130
e 123 128
e 123 127
e 123 126
e 123 125
e 123 124
e 122 164
e 122 161
e 122 160
e 122 158
e 122 157
e 122 156
e 122 154
e 122 153
e 122 150
e 122 129
e 122 127
e 122 126
e 122 125
e 122 124
e 122 123
e 121 164
e 121 163
e 121 161
e 121 160
e 121 159
e 121 157
e 121 156
e 121 155
e 121 154
e 121 153
e 121 152
e 121 150
e 121 149
e 121 128
e 121 125
e 121 124
e 121 123
e 121 122
e 120 160
e 120 157
e 120 156
e 120 153
e 120 127
e 120 124
e 120 123
e 120 122
e 120 121
e 119 164
e 119 161
e 119 157
e 119 127
e 119 126
e 119 123
e 119 122
e 119 121
e 119 120
e 118 167
e 118 165
e 118 164
e 118 163
e 118 162
e 118 161
e 118 160
e 118 158
e 118 157
e 118 156
e 118 154
e 118 153
e 118 125
e 118 123
e 118 122
e 118 121
e 118 120
e 118 119
e 117 167
e 117 164
e 117 163
e 117 161
e 117 160
e 117 159
e 117 157
e 117 156
e 117 153
e 117 125
e 117 124
e 117 122
e 117 121
e 117 120
e 117 119
e 117 118
e 116 160
e 116 124
e 116 123
e 116 121
e 116 120
e 116 119
e 116 118
e 116 117
e 115 168
e 115 167
e 115 165
e 115 164
e 115 161
e 115 160
e 115 122
e 115 119
e 115 118
e 115 117
e 115 116
e 114 169
e 114 168
e 114 167
e 114 166
e 114 165
e 114 164
e 114 163
e 114 162
e 114 161
e 114 160
e 114 159
e 114 157
e 114 156
e 114 121
e 114 119
e 114 118
e 114 117
e 114 116
e 114 115
e 113 167
e 113 164
e 113 163
e 113 160
e 113 121
e 113 120
e 113 117
e 113 116
e 113 115
e 113 114
e 112 164
e 112 120
e 112 119
e 112 117
e 112 116
e 112 115
e 112 114
e 112 113
e 111 168
e 111 167
e 111 166
e 111 165
e 111 164
e 111 163
e 111 161
e 111 118
e 111 116
e 111 115
e 111 114
e 111 113
e 111 112
e 110 168
e 110 167
e 110 164
e 110 163
e 110 117
e 110 116
e 110 115
e 110 114
e 110 113
e 110 112
e 110 111
e 109 169
e 109 168
e 109 167
e 109 166
e 109 163
e 109 114
e 109 111
e 109 110
e 108 167
e 108 163
e 108 117
e 108 116
e 108 114
e 108 113
e 108 112
e 108 110
e 108 109
e 107 169
e 107 163
e 107 110
e 107 109
e 107 108
e 106 169
e 106 168
e 106 167
e 106 166
e 106 164
e 106 163
e 106 162
e 106 160
e 106 159
e 106 156
e 106 121
e 106 118
e 106 117
e 106 114
e 106 110
e 106 109
e 106 108
e 106 107
e 105 167
e 105 164
e 105 163
e 105 160
e 105 159
e 105 156
e 105 121
e 105 120
e 105 118
e 105 117
e 105 116
e 105 114
e 105 113
e 105 112
e 105 111
e 105 110
e 105 109
e 105 108
e 105 107
e 105 106
e 104 117
e 104 113
e 104 110
e 104 108
e 104 107
e 104 106
e 104 105
e 103 163
e 103 160
e 103 159
e 103 156
e 103 117
e 103 114
e 103 108
e 103 107
e 103 106
e 103 105
e 103 104
e 102 167
e 102 164
e 102 163
e 102 162
e 102 161
e 102 160
e 102 159
e 102 157
e 102 156
e 102 155
e 102 153
e 102 152
e 102 124
e 102 121
e 102 120
e 102 118
e 102 117
e 102 116
e 102 114
e 102 113
e 102 107
e 102 106
e 102 105
e 102 104
e 102 103
e 101 163
e 101 160
e 101 156
e 101 124
e 101 121
e 101 120
e 101 117
e 101 116
e 101 114
e 101 113
e 101 110
e 101 108
e 101 106
e 101 105
e 101 104
e 101 103
e 101 102
e 100 156
e 100 107
e 100 104
e 100 103
e 100 102
e 100 101
e 99 163
e 99 160
e 99 159
e 99 156
e 99 155
e 99 153
e 99 152
e 99 121
e 99 117
e 99 106
e 99 103
e 99 102
e 99 101
e 99 100
e 98 163
e 98 160
e 98 159
e 98 157
e 98 156
e 98 153
e 98 152
e 98 149
e 98 128
e 98 125
e 98 124
e 98 123
e 98 122
e 98 121
e 98 120
e 98 118
e 98 117
e 98 116
e 98 114
e 98 113
e 98 105
e 98 102
e 98 101
e 98 100
e 98 99
e 97 156
e 97 124
e 97 121
e 97 120
e 97 117
e 97 104
e 97 101
e 97 100
e 97 99
e 97 98
e 96 156
e 96 152
e 96 103
e 96 101
e 96 100
e 96 99
e 96 98
e 96 97
e 95 160
e 95 159
e 95 157
e 95 156
e 95 155
e 95 154
e 95 153
e 95 152
e 95 151
e 95 150
e 95 149
e 95 148
e 95 147
e 95 146
e 95 128
e 95 125
e 95 124
e 95 121
e 95 117
e 95 102
e 95 100
e 95 99
e 95 98
e 95 97
e 95 96
e 94 156
e 94 153
e 94 152
e 94 149
e 94 131
e 94 128
e 94 127
e 94 124
e 94 121
e 94 120
e 94 117
e 94 101
e 94 99
e 94 98
e 94 97
e 94 96
e 94 95
e 93 152
e 93 100
e 93 98
e 93 97
e 93 96
e 93 95
e 93 94
e 92 156
e 92 153
e 92 152
e 92 149
e 92 148
e 92 146
e 92 99
e 92 96
e 92 95
e 92 94
e 92 93
e 91 156
e 91 153
e 91 152
e 91 151
e 91 150
e 91 149
e 91 148
e 91 147
e 91 146
e 91 143
e 91 135
e 91 131
e 91 128
e 91 127
e 91 125
e 91 124
e 91 121
e 91 98
e 91 96
e 91 95
e 91 94
e 91 93
e 91 92
e 90 153
e 90 149
e 90 147
e 90 146
e 90 143
e 90 131
e 90 128
e 90 124
e 90 98
e 90 97
e 90 95
e 90 94
e 90 93
e 90 92
e 90 91
e 89 149
e 89 146
e 89 96
e 89 94
e 89 93
e 89 92
e 89 91
e 89 90
e 88 153
e 88 152
e 88 149
e 88 148
e 88 147
e 88 146
e 88 143
e 88 142
e 88 140
e 88 135
e 88 131
e 88 128
e 88 124
e 88 95
e 88 94
e 88 92
e 88 91
e 88 90
e 88 89
e 87 149
e 87 148
e 87 147
e 87 146
e 87 145
e 87 143
e 87 142
e 87 141
e 87 140
e 87 135
e 87 131
e 87 92
e 87 91
e 87 90
e 87 89
e 87 88
e 86 156
e 86 153
e 86 152
e 86 151
e 86 150
e 86 149
e 86 148
e 86 147
e 86 146
e 86 145
e 86 143
e 86 135
e 86 128
e 86 124
e 86 95
e 86 94
e 86 92
e 86 91
e 86 90
e 86 89
e 86 88
e 86 87
e 85 152
e 85 148
e 85 146
e 85 145
e 85 92
e 85 89
e 85 87
e 85 86
e 84 148
e 84 146
e 84 145
e 84 142
e 84 141
e 84 87
e 84 86
e 84 85
e 83 148
e 83 145
e 83 85
e 83 84
e 82 155
e 82 152
e 82 151
e 82 148
e 82 85
e 82 84
e 82 83
e 81 148
e 81 145
e 81 84
e 81 83
e 81 82
e 80 151
e 80 148
e 80 145
e 80 84
e 80 83
e 80 82
e 80 81
e 79 152
e 79 151
e 79 150
e 79 149
e 79 148
e 79 146
e 79 145
e 79 144
e 79 142
e 79 141
e 79 136
e 79 132
e 79 87
e 79 86
e 79 84
e 79 82
e 79 81
e 79 80
e 78 148
e 78 145
e 78 141
e 78 84
e 78 83
e 78 82
e 78 81
e 78 80
e 78 79
e 77 151
e 77 148
e 77 146
e 77 145
e 77 144
e 77 143
e 77 142
e 77 141
e 77 136
e 77 132
e 77 87
e 77 84
e 77 83
e 77 81
e 77 80
e 77 79
e 77 78
e 76 145
e 76 142
e 76 141
e 76 84
e 76 81
e 76 78
e 76 77
e 75 145
e 75 144
e 75 142
e 75 141
e 75 140
e 75 139
e 75 136
e 75 79
e 75 77
e 75 76
e 74 141
e 74 139
e 74 136
e 74 78
e 74 77
e 74 76
e 74 75
e 73 145
e 73 141
e 73 81
e 73 80
e 73 79
e 73 78
e 73 77
e 73 76
e 73 75
e 73 74
e 72 151
e 72 150
e 72 148
e 72 147
e 72 146
e 72 145
e 72 144
e 72 143
e 72 142
e 72 141
e 72 140
e 72 139
e 72 136
e 72 135
e 72 132
e 72 129
e 72 87
e 72 84
e 72 81
e 72 80
e 72 79
e 72 78
e 72 77
e 72 76
e 72 75
e 72 74
e 72 73
e 71 145
e 71 144
e 71 141
e 71 139
e 71 137
e 71 136
e 71 135
e 71 133
e 71 132
e 71 129
e 71 79
e 71 77
e 71 75
e 71 74
e 71 73
e 71 72
e 70 145
e 70 136
e 70 80
e 70 79
e 70 78
e 70 74
e 70 73
e 70 72
e 70 71
e 69 154
e 69 151
e 69 150
e 69 148
e 69 146
e 69 145
e 69 144
e 69 141
e 69 136
e 69 132
e 69 129
e 69 84
e 69 80
e 69 79
e 69 78
e 69 77
e 69 74
e 69 73
e 69 72
e 69 71
e 69 70
e 68 154
e 68 151
e 68 150
e 68 148
e 68 147
e 68 145
e 68 144
e 68 143
e 68 141
e 68 137
e 68 136
e 68 135
e 68 133
e 68 132
e 68 131
e 68 130
e 68 129
e 68 128
e 68 125
e 68 79
e 68 77
e 68 75
e 68 72
e 68 71
e 68 70
e 68 69
e 67 150
e 67 144
e 67 136
e 67 133
e 67 132
e 67 129
e 67 79
e 67 74
e 67 71
e 67 70
e 67 69
e 67 68
e 66 154
e 66 151
e 66 150
e 66 80
e 66 79
e 66 73
e 66 70
e 66 69
e 66 68
e 66 67
e 65 158
e 65 157
e 65 155
e 65 154
e 65 153
e 65 151
e 65 150
e 65 149
e 65 148
e 65 147
e 65 145
e 65 144
e 65 136
e 65 133
e 65 132
e 65 129
e 65 128
e 65 125
e 65 80
e 65 79
e 65 77
e 65 72
e 65 70
e 65 69
e 65 68
e 65 67
e 65 66
e 64 154
e 64 151
e 64 150
e 64 144
e 64 137
e 64 136
e 64 133
e 64 132
e 64 130
e 64 129
e 64 128
e 64 126
e 64 125
e 64 122
e 64 71
e 64 69
e 64 68
e 64 67
e 64 66
e 64 65
e 63 158
e 63 154
e 63 151
e 63 150
e 63 129
e 63 125
e 63 80
e 63 79
e 63 70
e 63 69
e 63 68
e 63 67
e 63 66
e 63 65
e 63 64
e 62 67
e 62 66
e 62 64
e 62 63
e 61 136
e 61 133
e 61 74
e 61 73
e 61 71
e 61 70
e 61 68
e 61 67
e 61 66
e 61 63
e 61 62
e 60 80
e 60 79
e 60 74
e 60 73
e 60 71
e 60 70
e 60 69
e 60 67
e 60 66
e 60 65
e 60 63
e 60 62
e 60 61
e 59 80
e 59 70
e 59 66
e 59 65
e 59 63
e 59 62
e 59 61
e 59 60
e 58 70
e 58 67
e 58 66
e 58 63
e 58 62
e 58 61
e 58 60
e 58 59
e 57 74
e 57 73
e 57 70
e 57 67
e 57 62
e 57 61
e 57 60
e 57 59
e 57 58
e 56 80
e 56 73
e 56 70
e 56 69
e 56 66
e 56 63
e 56 61
e 56 60
e 56 59
e 56 58
e 56 57
e 55 66
e 55 63
e 55 62
e 55 60
e 55 59
e 55 58
e 55 57
e 55 56
e 54 62
e 54 61
e 54 59
e 54 58
e 54 57
e 54 56
e 54 55
e 53 70
e 53 60
e 53 58
e 53 57
e 53 56
e 53 55
e 53 54
e 52 60
e 52 59
e 52 57
e 52 56
e 52 55
e 52 54
e 52 53
e 51 59
e 51 58
e 51 55
e 51 54
e 51 53
e 51 52
e 50 57
e 50 54
e 50 53
e 50 52
e 50 51
e 49 56
e 49 53
e 49 52
e 49 51
e 49 50
e 48 55
e 48 52
e 48 51
e 48 50
e 48 49
e 47 54
e 47 51
e 47 50
e 47 49
e 47 48
e 46 53
e 46 51
e 46 50
e 46 49
e 46 48
e 46 47
e 45 52
e 45 50
e 45 49
e 45 48
e 45 47
e 45 46
e 44 51
e 44 48
e 44 47
e 44 46
e 44 45
e 43 50
e 43 47
e 43 46
e 43 45
e 43 44
e 42 50
e 42 49
e 42 47
e 42 46
e 42 45
e 42 44
e 42 43
e 41 49
e 41 48
e 41 46
e 41 45
e 41 44
e 41 43
e 41 42
e 40 47
e 40 46
e 40 45
e 40 44
e 40 43
e 40 42
e 40 41
e 39 50
e 39 47
e 39 46
e 39 44
e 39 43
e 39 42
e 39 41
e 39 40
e 38 47
e 38 44
e 38 43
e 38 40
e 38 39
e 37 44
e 37 39
e 37 38
e 36 51
e 36 50
e 36 49
e 36 48
e 36 47
e 36 46
e 36 45
e 36 44
e 36 43
e 36 42
e 36 41
e 36 40
e 36 39
e 36 38
e 36 37
e 35 50
e 35 47
e 35 43
e 35 39
e 35 38
e 35 37
e 35 36
e 34 51
e 34 47
e 34 38
e 34 37
e 34 36
e 34 35
e 33 52
e 33 51
e 33 48
e 33 47
e 33 45
e 33 44
e 33 43
e 33 41
e 33 39
e 33 37
e 33 36
e 33 35
e 33 34
e 32 55
e 32 51
e 32 47
e 32 37
e 32 36
e 32 35
e 32 34
e 32 33
e 31 58
e 31 57
e 31 55
e 31 54
e 31 53
e 31 51
e 31 50
e 31 49
e 31 48
e 31 47
e 31 46
e 31 43
e 31 39
e 31 36
e 31 35
e 31 34
e 31 33
e 31 32
e 30 54
e 30 51
e 30 50
e 30 47
e 30 46
e 30 43
e 30 39
e 30 36
e 30 35
e 30 32
e 30 31
e 29 54
e 29 51
e 29 36
e 29 35
e 29 34
e 29 32
e 29 31
e 29 30
e 28 62
e 28 59
e 28 58
e 28 57
e 28 55
e 28 54
e 28 52
e 28 51
e 28 50
e 28 48
e 28 35
e 28 34
e 28 33
e 28 32
e 28 31
e 28 30
e 28 29
e 27 61
e 27 58
e 27 57
e 27 56
e 27 55
e 27 54
e 27 53
e 27 51
e 27 50
e 27 47
e 27 31
e 27 30
e 27 29
e 27 28
e 26 54
e 26 31
e 26 30
e 26 29
e 26 28
e 26 27
e 25 62
e 25 58
e 25 55
e 25 54
e 25 51
e 25 32
e 25 29
e 25 28
e 25 27
e 25 26
e 24 62
e 24 61
e 24 59
e 24 58
e 24 57
e 24 56
e 24 55
e 24 54
e 24 53
e 24 51
e 24 29
e 24 28
e 24 27
e 24 26
e 24 25
e 23 62
e 23 61
e 23 58
e 23 57
e 23 54
e 23 31
e 23 30
e 23 28
e 23 27
e 23 26
e 23 25
e 23 24
e 22 58
e 22 29
e 22 27
e 22 26
e 22 25
e 22 24
e 22 23
e 21 63
e 21 62
e 21 61
e 21 59
e 21 58
e 21 55
e 21 28
e 21 26
e 21 25
e 21 24
e 21 23
e 21 22
e 20 71
e 20 70
e 20 67
e 20 62
e 20 61
e 20 60
e 20 59
e 20 58
e 20 57
e 20 55
e 20 54
e 20 28
e 20 27
e 20 25
e 20 24
e 20 23
e 20 22
e 20 21
e 19 61
e 19 58
e 19 26
e 19 24
e 19 23
e 19 22
e 19 21
e 19 20
e 18 62
e 18 61
e 18 25
e 18 22
e 18 21
e 18 20
e 18 19
e 17 129
e 17 67
e 17 64
e 17 63
e 17 62
e 17 61
e 17 59
e 17 58
e 17 24
e 17 21
e 17 20
e 17 19
e 17 18
e 16 67
e 16 61
e 16 23
e 16 22
e 16 21
e 16 20
e 16 19
e 16 18
e 16 17
e 15 136
e 15 133
e 15 74
e 15 71
e 15 70
e 15 68
e 15 67
e 15 64
e 15 62
e 15 61
e 15 60
e 15 58
e 15 57
e 15 24
e 15 23
e 15 21
e 15 20
e 15 19
e 15 18
e 15 17
e 15 16
e 14 137
e 14 136
e 14 134
e 14 133
e 14 132
e 14 130
e 14 129
e 14 71
e 14 68
e 14 67
e 14 64
e 14 61
e 14 20
e 14 19
e 14 17
e 14 16
e 14 15
e 13 150
e 13 147
e 13 145
e 13 144
e 13 141
e 13 137
e 13 136
e 13 135
e 13 134
e 13 133
e 13 132
e 13 130
e 13 129
e 13 79
e 13 77
e 13 75
e 13 72
e 13 71
e 13 70
e 13 68
e 13 67
e 13 65
e 13 64
e 13 61
e 13 20
e 13 17
e 13 15
e 13 14
e 12 139
e 12 137
e 12 136
e 12 133
e 12 75
e 12 74
e 12 71
e 12 70
e 12 68
e 12 67
e 12 61
e 12 20
e 12 19
e 12 16
e 12 15
e 12 14
e 12 13
e 11 144
e 11 141
e 11 139
e 11 136
e 11 75
e 11 74
e 11 73
e 11 72
e 11 71
e 11 70
e 11 67
e 11 61
e 11 60
e 11 15
e 11 13
e 11 12
e 10 139
e 10 137
e 10 136
e 10 74
e 10 71
e 10 67
e 10 61
e 10 20
e 10 19
e 10 16
e 10 15
e 10 14
e 10 13
e 10 12
e 10 11
e 9 136
e 9 71
e 9 70
e 9 67
e 9 62
e 9 61
e 9 60
e 9 58
e 9 57
e 9 54
e 9 27
e 9 24
e 9 23
e 9 22
e 9 20
e 9 19
e 9 17
e 9 16
e 9 15
e 9 14
e 9 13
e 9 12
e 9 11
e 9 10
e 8 61
e 8 54
e 8 30
e 8 27
e 8 26
e 8 23
e 8 20
e 8 19
e 8 15
e 8 10
e 8 9
e 7 71
e 7 70
e 7 67
e 7 62
e 7 61
e 7 60
e 7 58
e 7 57
e 7 55
e 7 54
e 7 53
e 7 28
e 7 27
e 7 26
e 7 24
e 7 23
e 7 22
e 7 21
e 7 20
e 7 19
e 7 17
e 7 16
e 7 15
e 7 12
e 7 11
e 7 10
e 7 9
e 7 8
e 6 70
e 6 61
e 6 60
e 6 58
e 6 57
e 6 56
e 6 54
e 6 53
e 6 50
e 6 31
e 6 30
e 6 28
e 6 27
e 6 26
e 6 24
e 6 23
e 6 20
e 6 9
e 6 8
e 6 7
e 5 74
e 5 70
e 5 61
e 5 57
e 5 27
e 5 23
e 5 11
e 5 10
e 5 9
e 5 8
e 5 7
e 5 6
e 4 136
e 4 75
e 4 74
e 4 73
e 4 71
e 4 70
e 4 68
e 4 67
e 4 61
e 4 60
e 4 57
e 4 23
e 4 20
e 4 15
e 4 14
e 4 13
e 4 12
e 4 11
e 4 10
e 4 9
e 4 8
e 4 7
e 4 6
e 4 5
e 3 136
e 3 74
e 3 73
e 3 71
e 3 70
e 3 69
e 3 67
e 3 66
e 3 61
e 3 60
e 3 59
e 3 58
e 3 57
e 3 56
e 3 54
e 3 53
e 3 52
e 3 27
e 3 24
e 3 20
e 3 15
e 3 13
e 3 12
e 3 11
e 3 9
e 3 7
e 3 6
e 3 5
e 3 4
e 2 74
e 2 70
e 2 61
e 2 60
e 2 57
e 2 56
e 2 54
e 2 53
e 2 50
e 2 27
e 2 11
e 2 8
e 2 7
e 2 6
e 2 5
e 2 4
e 2 3
e 1 141
e 1 136
e 1 75
e 1 74
e 1 73
e 1 72
e 1 71
e 1 70
e 1 67
e 1 61
e 1 60
e 1 57
e 1 12
e 1 11
e 1 10
e 1 9
e 1 6
e 1 5
e 1 4
e 1 3
e 1 2
